true true true
presolving:
presolving (0 rounds: 0 fast, 0 medium, 0 exhaustive):
 0 deleted vars, 0 deleted constraints, 0 added constraints, 0 tightened bounds, 0 added holes, 0 changed sides, 0 changed coefficients
 0 implications, 0 cliques
presolved problem has 49 variables (49 bin, 0 int, 0 impl, 0 cont) and 42 constraints
     42 constraints of type <linear>
transformed objective value is always integral (scale: 1)
Presolving Time: 0.00

 time | node  | left  |LP iter|LP it/n|mem/heur|mdpt |vars |cons |rows |cuts |sepa|confs|strbr|  dualbound   | primalbound  |  gap   | compl. 
p 0.0s|     1 |     0 |     0 |     - |shiftand|   0 |  49 |  42 |  42 |   0 |  0 |   0 |   0 |      --      | 7.000000e+00 |    Inf | unknown
 time | node  | left  |LP iter|LP it/n|mem/heur|mdpt |vars |cons |rows |cuts |sepa|confs|strbr|  dualbound   | primalbound  |  gap   | compl. 
  0.1s|     1 |     0 |    34 |     - |  3988k |   0 |1140 |  42 |  42 |   0 |  0 |   0 |   0 |-1.710000e+02 | 7.000000e+00 |    Inf | unknown
 time | node  | left  |LP iter|LP it/n|mem/heur|mdpt |vars |cons |rows |cuts |sepa|confs|strbr|  dualbound   | primalbound  |  gap   | compl. 
 33.6s|     1 |     0 |   675 |     - |    10M |   0 |3013 |  42 |  42 |   0 |  0 |   0 |   0 | 6.000000e+00 | 7.000000e+00 |  16.67%| unknown
 time | node  | left  |LP iter|LP it/n|mem/heur|mdpt |vars |cons |rows |cuts |sepa|confs|strbr|  dualbound   | primalbound  |  gap   | compl. 
 34.1s|     1 |     2 |  2658 |     - |    11M |   0 |3013 |  42 |  42 |   0 |  1 |   0 |   0 | 6.000000e+00 | 7.000000e+00 |  16.67%| unknown
 time | node  | left  |LP iter|LP it/n|mem/heur|mdpt |vars |cons |rows |cuts |sepa|confs|strbr|  dualbound   | primalbound  |  gap   | compl. 
 48.6s|     2 |     3 |  2663 |   5.0 |    11M |   1 |3017 |  42 |  42 |   0 |  1 |   0 |   0 | 6.000000e+00 | 7.000000e+00 |  16.67%| unknown
 time | node  | left  |LP iter|LP it/n|mem/heur|mdpt |vars |cons |rows |cuts |sepa|confs|strbr|  dualbound   | primalbound  |  gap   | compl. 
 69.8s|     3 |     4 |  2684 |  13.0 |    11M |   2 |3022 |  42 |  42 |   0 |  1 |   0 |   0 | 6.000000e+00 | 7.000000e+00 |  16.67%| unknown
 time | node  | left  |LP iter|LP it/n|mem/heur|mdpt |vars |cons |rows |cuts |sepa|confs|strbr|  dualbound   | primalbound  |  gap   | compl. 
 86.1s|     4 |     5 |  3619 | 320.3 |    12M |   2 |3159 |  42 |  42 |   0 |  1 |   0 |   0 | 6.000000e+00 | 7.000000e+00 |  16.67%| unknown
 time | node  | left  |LP iter|LP it/n|mem/heur|mdpt |vars |cons |rows |cuts |sepa|confs|strbr|  dualbound   | primalbound  |  gap   | compl. 
 95.7s|     5 |     6 |  3697 | 259.8 |    13M |   2 |3180 |  42 |  42 |   0 |  1 |   0 |   0 | 6.000000e+00 | 7.000000e+00 |  16.67%| unknown
 time | node  | left  |LP iter|LP it/n|mem/heur|mdpt |vars |cons |rows |cuts |sepa|confs|strbr|  dualbound   | primalbound  |  gap   | compl. 
  100s|     6 |     7 |  3703 | 209.0 |    13M |   2 |3182 |  42 |  42 |   0 |  1 |   0 |   0 | 6.000000e+00 | 7.000000e+00 |  16.67%| unknown
 time | node  | left  |LP iter|LP it/n|mem/heur|mdpt |vars |cons |rows |cuts |sepa|confs|strbr|  dualbound   | primalbound  |  gap   | compl. 
  100s|     7 |     6 |  3740 | 180.3 |    13M |   3 |3182 |  42 |  42 |   0 |  0 |   0 |   0 | 6.000000e+00 | 7.000000e+00 |  16.67%| unknown
 time | node  | left  |LP iter|LP it/n|mem/heur|mdpt |vars |cons |rows |cuts |sepa|confs|strbr|  dualbound   | primalbound  |  gap   | compl. 
  109s|     8 |     7 |  3742 | 154.9 |    13M |   3 |3184 |  42 |  42 |   0 |  1 |   0 |   0 | 6.000000e+00 | 7.000000e+00 |  16.67%|   4.58%
 time | node  | left  |LP iter|LP it/n|mem/heur|mdpt |vars |cons |rows |cuts |sepa|confs|strbr|  dualbound   | primalbound  |  gap   | compl. 
  114s|     9 |     8 |  3746 | 136.0 |    13M |   4 |3184 |  42 |  42 |   0 |  1 |   0 |   0 | 6.000000e+00 | 7.000000e+00 |  16.67%|   4.58%
 time | node  | left  |LP iter|LP it/n|mem/heur|mdpt |vars |cons |rows |cuts |sepa|confs|strbr|  dualbound   | primalbound  |  gap   | compl. 
  124s|    10 |     9 |  3821 | 129.2 |    13M |   4 |3213 |  42 |  42 |   0 |  1 |   0 |   0 | 6.000000e+00 | 7.000000e+00 |  16.67%|   4.58%
 time | node  | left  |LP iter|LP it/n|mem/heur|mdpt |vars |cons |rows |cuts |sepa|confs|strbr|  dualbound   | primalbound  |  gap   | compl. 
  138s|    11 |    10 |  4010 | 135.2 |    13M |   5 |3241 |  42 |  42 |   0 |  1 |   0 |   0 | 6.000000e+00 | 7.000000e+00 |  16.67%|   4.58%
 time | node  | left  |LP iter|LP it/n|mem/heur|mdpt |vars |cons |rows |cuts |sepa|confs|strbr|  dualbound   | primalbound  |  gap   | compl. 
  142s|    12 |    11 |  4374 | 156.0 |    13M |   5 |3329 |  42 |  42 |   0 |  1 |   0 |   0 | 6.000000e+00 | 7.000000e+00 |  16.67%|   4.58%
 time | node  | left  |LP iter|LP it/n|mem/heur|mdpt |vars |cons |rows |cuts |sepa|confs|strbr|  dualbound   | primalbound  |  gap   | compl. 
  144s|    13 |    12 |  4801 | 178.6 |    14M |   5 |3334 |  42 |  42 |   0 |  1 |   0 |   0 | 6.000000e+00 | 7.000000e+00 |  16.67%|   4.58%
 time | node  | left  |LP iter|LP it/n|mem/heur|mdpt |vars |cons |rows |cuts |sepa|confs|strbr|  dualbound   | primalbound  |  gap   | compl. 
  148s|    14 |    13 |  4863 | 169.6 |    14M |   5 |3336 |  42 |  42 |   0 |  1 |   0 |   0 | 6.000000e+00 | 7.000000e+00 |  16.67%|   4.58%
 time | node  | left  |LP iter|LP it/n|mem/heur|mdpt |vars |cons |rows |cuts |sepa|confs|strbr|  dualbound   | primalbound  |  gap   | compl. 
  150s|    15 |    12 |  4949 | 163.6 |    14M |   5 |3380 |  42 |  42 |   0 |  0 |   0 |   0 | 6.000000e+00 | 7.000000e+00 |  16.67%|   4.58%
 time | node  | left  |LP iter|LP it/n|mem/heur|mdpt |vars |cons |rows |cuts |sepa|confs|strbr|  dualbound   | primalbound  |  gap   | compl. 
  159s|    16 |    13 |  5094 | 162.4 |    14M |   5 |3401 |  42 |  42 |   0 |  1 |   0 |   0 | 6.000000e+00 | 7.000000e+00 |  16.67%|   9.17%
 time | node  | left  |LP iter|LP it/n|mem/heur|mdpt |vars |cons |rows |cuts |sepa|confs|strbr|  dualbound   | primalbound  |  gap   | compl. 
  163s|    17 |    14 |  5220 | 160.1 |    14M |   5 |3413 |  42 |  42 |   0 |  1 |   0 |   0 | 6.000000e+00 | 7.000000e+00 |  16.67%|   9.17%
 time | node  | left  |LP iter|LP it/n|mem/heur|mdpt |vars |cons |rows |cuts |sepa|confs|strbr|  dualbound   | primalbound  |  gap   | compl. 
d 167s|    18 |     0 |  5662 | 176.7 |adaptive|   6 |3512 |  42 |  42 |   0 |  1 |   0 |   0 | 6.000000e+00 | 6.000000e+00 |   0.00%| 100.00%

SCIP Status        : problem is solved [optimal solution found]
Solving Time (sec) : 166.95
Solving Nodes      : 18
Primal Bound       : +6.00000000000000e+00 (3 solutions)
Dual Bound         : +6.00000000000000e+00
Gap                : 0.00 %
Running with parallel: True bidir: True symbreak: True
Number of Nodes:  42
48.732588273404595% holds
starting cheapest insertion heuristic
Heuristic without TSP improvement:  8
Heuristic without TSP improvement time:  0.1
Heuristic Sol:  7
Heuristic total time:  0.1
[[14, 20, 27, 6, 22], [33, 21, 25, 35, 30, 5, 31, 28, 26, 4, 15], [23, 0, 38, 11], [19, 18, 1, 3], [36, 24, 17, 16, 39, 7], [37, 29, 8, 10, 2, 34, 12], [41, 13, 40, 9, 32]]
Instance path:  /home/htc/mghannam/SCRATCH/lccp-rust/data/t62_swiss42.npcc
Timelimit:  7200
Heuristic without TSP improvement:  8
Heuristic without TSP improvement time:  0.1
Heuristic Sol:  7
Heuristic total time:  0.3
at 1 zero_duals: 35
Switching to elementary pricing
at1, LP obj: 7.0 n_added_paths: 1091
updated lowerbound from -1e+20 to -171
at 1 zero_duals: 24
at1, LP obj: 7.0 n_added_paths: 196
at 1 zero_duals: 19
at1, LP obj: 7.0 n_added_paths: 499
at 1 zero_duals: 8
at1, LP obj: 6.571428571428571 n_added_paths: 385
at 1 zero_duals: 10
at1, LP obj: 6.312581913499345 n_added_paths: 309
at 1 zero_duals: 5
at1, LP obj: 6.017130884890313 n_added_paths: 200
at 1 zero_duals: 3
at1, LP obj: 5.75 n_added_paths: 104
at 1 zero_duals: 2
at1, LP obj: 5.631542699724518 n_added_paths: 63
at 1 zero_duals: 2
at1, LP obj: 5.589205397301349 n_added_paths: 21
at 1 zero_duals: 2
at1, LP obj: 5.570552147239264 n_added_paths: 18
Switching to elementary pricing
at1, LP obj: 5.565366972477064 n_added_paths: 43
updated lowerbound from 1.0 to 6
at 1 zero_duals: 2
at1, LP obj: 5.527027027027027 n_added_paths: 4
at 1 zero_duals: 2
at1, LP obj: 5.526717557251908 n_added_paths: 6
at 1 zero_duals: 2
Switching to elementary pricing
at1, LP obj: 5.526315789473684 n_added_paths: 13
at 1 zero_duals: 2
at1, LP obj: 5.516746411483254 n_added_paths: 5
at 1 zero_duals: 2
at1, LP obj: 5.516393442622951 n_added_paths: 2
at 1 zero_duals: 2
Switching to elementary pricing
at1, LP obj: 5.516393442622951 n_added_paths: 4
at 1 zero_duals: 2
Switching to elementary pricing
at1, LP obj: 5.516355140186916 n_added_paths: 1
at 1 zero_duals: 2
Switching to elementary pricing
at1, LP obj: 5.516355140186916 n_added_paths: 0
at 2 zero_duals: 2
Switching to elementary pricing
at2, LP obj: 5.516624040920716 n_added_paths: 4
at 2 zero_duals: 2
Switching to elementary pricing
at2, LP obj: 5.516431924882629 n_added_paths: 0
at 4 zero_duals: 2
at4, LP obj: 5.5210355987055015 n_added_paths: 2
at 4 zero_duals: 2
Switching to elementary pricing
at4, LP obj: 5.521026761332605 n_added_paths: 2
at 4 zero_duals: 2
Switching to elementary pricing
at4, LP obj: 5.519896193771626 n_added_paths: 1
at 4 zero_duals: 1
Switching to elementary pricing
at4, LP obj: 5.519896193771626 n_added_paths: 0
at 5 zero_duals: 8
at5, LP obj: 5.666666666666667 n_added_paths: 95
at 5 zero_duals: 26
at5, LP obj: 5.666666666666667 n_added_paths: 5
at 5 zero_duals: 2
Switching to elementary pricing
at5, LP obj: 5.6263683960019035 n_added_paths: 36
at 5 zero_duals: 2
Switching to elementary pricing
at5, LP obj: 5.623430962343097 n_added_paths: 1
at 5 zero_duals: 4
Switching to elementary pricing
at5, LP obj: 5.622516556291391 n_added_paths: 0
at 3 zero_duals: 5
at3, LP obj: 5.576623376623377 n_added_paths: 15
at 3 zero_duals: 1
Switching to elementary pricing
at3, LP obj: 5.567879006121714 n_added_paths: 6
at 3 zero_duals: 1
Switching to elementary pricing
at3, LP obj: 5.567879006121714 n_added_paths: 0
at 10 zero_duals: 1
at10, LP obj: 5.568899153194765 n_added_paths: 2
at 10 zero_duals: 1
Switching to elementary pricing
at10, LP obj: 5.5688161693936475 n_added_paths: 0
at 12 zero_duals: 41
Switching to elementary pricing
at12, LP obj: 1e+20 n_added_paths: 0
updated lowerbound from 6.0 to 100000000000000000000
at 13 zero_duals: 1
Switching to elementary pricing
at13, LP obj: 5.568899153194765 n_added_paths: 2
at 13 zero_duals: 1
Switching to elementary pricing
at13, LP obj: 5.5688161693936475 n_added_paths: 0
at 14 zero_duals: 1
Switching to elementary pricing
at14, LP obj: 5.5698324022346375 n_added_paths: 0
at 15 zero_duals: 2
at15, LP obj: 5.694444444444445 n_added_paths: 9
at 15 zero_duals: 2
at15, LP obj: 5.694444444444445 n_added_paths: 1
at 15 zero_duals: 2
at15, LP obj: 5.691729323308271 n_added_paths: 2
at 15 zero_duals: 2
Switching to elementary pricing
at15, LP obj: 5.689655172413794 n_added_paths: 9
at 15 zero_duals: 2
Switching to elementary pricing
at15, LP obj: 5.689655172413794 n_added_paths: 2
at 15 zero_duals: 1
at15, LP obj: 5.687691365584813 n_added_paths: 2
at 15 zero_duals: 1
Switching to elementary pricing
at15, LP obj: 5.687409551374819 n_added_paths: 4
at 15 zero_duals: 2
Switching to elementary pricing
at15, LP obj: 5.686821705426357 n_added_paths: 0
at 18 zero_duals: 4
Switching to elementary pricing
at18, LP obj: 5.704081632653061 n_added_paths: 19
at 18 zero_duals: 1
at18, LP obj: 5.697334479793637 n_added_paths: 4
at 18 zero_duals: 1
Switching to elementary pricing
at18, LP obj: 5.697247706422019 n_added_paths: 4
at 18 zero_duals: 1
Switching to elementary pricing
at18, LP obj: 5.697237569060773 n_added_paths: 1
at 18 zero_duals: 1
Switching to elementary pricing
at18, LP obj: 5.697230769230769 n_added_paths: 0
at 11 zero_duals: 7
at11, LP obj: 5.74 n_added_paths: 40
at 11 zero_duals: 2
at11, LP obj: 5.708812260536399 n_added_paths: 34
at 11 zero_duals: 2
Switching to elementary pricing
at11, LP obj: 5.672131147540983 n_added_paths: 14
at 11 zero_duals: 2
Switching to elementary pricing
at11, LP obj: 5.6499999999999995 n_added_paths: 0
at 17 zero_duals: 2
Switching to elementary pricing
at17, LP obj: 5.5927125506072874 n_added_paths: 3
at 17 zero_duals: 3
at17, LP obj: 5.591549295774648 n_added_paths: 2
at 17 zero_duals: 3
Switching to elementary pricing
at17, LP obj: 5.591463414634147 n_added_paths: 0
at 16 zero_duals: 2
at16, LP obj: 5.58018018018018 n_added_paths: 2
at 16 zero_duals: 2
Switching to elementary pricing
at16, LP obj: 5.579881656804734 n_added_paths: 0
at 23 zero_duals: 41
Switching to elementary pricing
at23, LP obj: 1e+20 n_added_paths: 1
updated lowerbound from 6.0 to 100000000000000000000
at 23 zero_duals: 2
at23, LP obj: 6.507204610951009 n_added_paths: 35
at 23 zero_duals: 1
at23, LP obj: 6.473118279569893 n_added_paths: 1
at 23 zero_duals: 1
Switching to elementary pricing
at23, LP obj: 6.472027972027972 n_added_paths: 7
updated lowerbound from 6.0 to 7
at 22 zero_duals: 1
at22, LP obj: 5.684563758389262 n_added_paths: 7
at 22 zero_duals: 2
Switching to elementary pricing
at22, LP obj: 5.684444444444445 n_added_paths: 3
at 22 zero_duals: 2
Switching to elementary pricing
at22, LP obj: 5.678547410894418 n_added_paths: 6
at 22 zero_duals: 2
Switching to elementary pricing
at22, LP obj: 5.677053824362606 n_added_paths: 1
at 22 zero_duals: 2
Switching to elementary pricing
at22, LP obj: 5.676744186046512 n_added_paths: 4
at 22 zero_duals: 2
Switching to elementary pricing
at22, LP obj: 5.6767068273092365 n_added_paths: 0
at 19 zero_duals: 1
Switching to elementary pricing
at19, LP obj: 5.718531468531468 n_added_paths: 12
at 19 zero_duals: 1
Switching to elementary pricing
at19, LP obj: 5.715116279069767 n_added_paths: 0
at 21 zero_duals: 4
at21, LP obj: 5.833333333333333 n_added_paths: 75
at 21 zero_duals: 2
at21, LP obj: 5.7874564459930316 n_added_paths: 14
at 21 zero_duals: 3
at21, LP obj: 5.7834394904458595 n_added_paths: 3
at 21 zero_duals: 3
Switching to elementary pricing
at21, LP obj: 5.783427495291901 n_added_paths: 5
at 21 zero_duals: 3
Switching to elementary pricing
at21, LP obj: 5.782608695652174 n_added_paths: 2
at 21 zero_duals: 2
Switching to elementary pricing
at21, LP obj: 5.782608695652174 n_added_paths: 0
Best solution found:
[23, 17, 16, 3, 19, 11, 23] 1.0 1.0
checking cycle [23, 17, 16, 3, 19, 11, 23]
[23, 17, 16, 3, 19, 11, 23] 386 382
[28, 4, 26, 22, 14, 27, 20, 28] 1.0 1.0
checking cycle [28, 4, 26, 22, 14, 27, 20, 28]
[28, 4, 26, 22, 14, 27, 20, 28] 342 309
[41, 32, 39, 40, 9, 13, 35, 30, 5, 41] 1.0 1.0
checking cycle [41, 32, 39, 40, 9, 13, 35, 30, 5, 41]
[41, 32, 39, 40, 9, 13, 35, 30, 5, 41] 232 205
[36, 24, 31, 6, 7, 36] 1.0 1.0
checking cycle [36, 24, 31, 6, 7, 36]
[36, 24, 31, 6, 7, 36] 270 264
[38, 18, 29, 8, 12, 37, 1, 0, 38] 1.0 1.0
checking cycle [38, 18, 29, 8, 12, 37, 1, 0, 38]
[38, 18, 29, 8, 12, 37, 1, 0, 38] 262 261
[34, 10, 2, 25, 21, 33, 15, 34] 1.0 1.0
checking cycle [34, 10, 2, 25, 21, 33, 15, 34]
[34, 10, 2, 25, 21, 33, 15, 34] 299 287
